db/data/132182890138953181832481126731788533.z3.out
-------------------
2500.235500018
